(set-logic QF_BV)
(declare-fun ADDRS_3 () (_ BitVec 8))
(declare-fun CLK_2 () (_ BitVec 1))
(declare-fun CLK_3 () (_ BitVec 1))
(declare-fun CLK_4 () (_ BitVec 1))
(declare-fun FLG_3 () (_ BitVec 1))
(declare-fun RESET_2 () (_ BitVec 1))
(declare-fun RESET_3 () (_ BitVec 1))
(declare-fun RESET_4 () (_ BitVec 1))
(declare-fun WRITE1_2 () (_ BitVec 1))
(declare-fun WRITE1_3 () (_ BitVec 1))
(declare-fun WR_BAR_0 () (_ BitVec 1))
(define-fun $e1 () (_ BitVec 8) (_ bv16 8))
(define-fun $e2 () (_ BitVec 8) (_ bv240 8))
(define-fun $e3 () (_ BitVec 1) (ite (= CLK_2 CLK_3) #b1 #b0))
(define-fun $e4 () (_ BitVec 1) (ite (= RESET_2 RESET_3) #b1 #b0))
(define-fun $e5 () (_ BitVec 1) (bvand $e3 $e4))
(define-fun $e6 () (_ BitVec 1) (bvand CLK_2 (bvnot $e3)))
(define-fun $e7 () (_ BitVec 1) (ite (= CLK_3 CLK_4) #b1 #b0))
(define-fun $e8 () (_ BitVec 1) (ite (= RESET_3 RESET_4) #b1 #b0))
(define-fun $e9 () (_ BitVec 1) (bvand $e7 $e8))
(define-fun $e10 () (_ BitVec 1) (bvand CLK_3 (bvnot $e7)))
(define-fun $e11 () (_ BitVec 1) (bvand FLG_3 (bvnot $e10)))
(define-fun $e12 () (_ BitVec 1) (bvand (bvnot RESET_3) $e11))
(define-fun $e13 () (_ BitVec 1) (bvand (bvnot FLG_3) $e9))
(define-fun $e14 () (_ BitVec 1) (bvand (bvnot $e9) (bvnot $e12)))
(define-fun $e15 () (_ BitVec 1) (bvand (bvnot $e13) (bvnot $e14)))
(define-fun $e16 () (_ BitVec 1) (ite (= ADDRS_3 $e1) #b1 #b0))
(define-fun $e17 () (_ BitVec 1) (ite (= ADDRS_3 (bvnot $e2)) #b1 #b0))
(define-fun $e18 () (_ BitVec 1) (bvand WRITE1_3 (bvnot $e17)))
(define-fun $e19 () (_ BitVec 1) (bvand (bvnot WRITE1_3) (bvnot $e16)))
(define-fun $e20 () (_ BitVec 1) (bvand (bvnot $e18) (bvnot $e19)))
(define-fun $e21 () (_ BitVec 1) (bvand $e10 (bvnot $e20)))
(define-fun $e22 () (_ BitVec 1) (bvand (bvnot $e10) (bvnot $e16)))
(define-fun $e23 () (_ BitVec 1) (bvand (bvnot $e21) (bvnot $e22)))
(define-fun $e24 () (_ BitVec 1) (bvand (bvnot RESET_3) $e23))
(define-fun $e25 () (_ BitVec 1) (bvand $e9 (bvnot $e16)))
(define-fun $e26 () (_ BitVec 1) (bvand (bvnot $e9) (bvnot $e24)))
(define-fun $e27 () (_ BitVec 1) (bvand (bvnot $e25) (bvnot $e26)))
(define-fun $e28 () (_ BitVec 1) (ite (= WR_BAR_0 $e27) #b1 #b0))
(define-fun $e29 () (_ BitVec 1) (ite (= WRITE1_2 WR_BAR_0) #b1 #b0))
(define-fun $e30 () (_ BitVec 1) (bvand WRITE1_2 (bvnot $e28)))
(define-fun $e31 () (_ BitVec 1) (bvand (bvnot WRITE1_2) (bvnot $e29)))
(define-fun $e32 () (_ BitVec 1) (bvand (bvnot $e30) (bvnot $e31)))
(define-fun $e33 () (_ BitVec 1) (bvand WRITE1_2 (bvnot $e32)))
(define-fun $e34 () (_ BitVec 1) (bvand (bvnot WRITE1_2) (bvnot WR_BAR_0)))
(define-fun $e35 () (_ BitVec 1) (bvand (bvnot $e33) (bvnot $e34)))
(define-fun $e36 () (_ BitVec 1) (bvand $e15 (bvnot $e35)))
(define-fun $e37 () (_ BitVec 1) (bvand (bvnot $e15) (bvnot $e29)))
(define-fun $e38 () (_ BitVec 1) (bvand (bvnot $e36) (bvnot $e37)))
(define-fun $e39 () (_ BitVec 1) (bvand $e6 (bvnot $e38)))
(define-fun $e40 () (_ BitVec 1) (bvand (bvnot $e6) (bvnot $e29)))
(define-fun $e41 () (_ BitVec 1) (bvand (bvnot $e39) (bvnot $e40)))
(define-fun $e42 () (_ BitVec 1) (bvand RESET_2 (bvnot WR_BAR_0)))
(define-fun $e43 () (_ BitVec 1) (bvand (bvnot RESET_2) (bvnot $e41)))
(define-fun $e44 () (_ BitVec 1) (bvand (bvnot $e42) (bvnot $e43)))
(define-fun $e45 () (_ BitVec 1) (bvand $e5 (bvnot $e29)))
(define-fun $e46 () (_ BitVec 1) (bvand (bvnot $e5) (bvnot $e44)))
(assert (not (= (bvnot $e45) #b0)))
(assert (not (= (bvnot $e46) #b0)))
(check-sat)
(exit)
